NAME : local_3
TYPE : ATSP
DIMENSION : 9
EDGE_WEIGHT_TYPE : EXPLICIT
EDGE_WEIGHT_FORMAT : FULL_MATRIX
EDGE_WEIGHT_SECTION
0 665 697 10000000 10000000 571 10000000 500 306 
0 0 254 10000000 10000000 498 988 227 692 
0 254 0 10000000 942 707 879 206 636 
0 10000000 10000000 0 640 10000000 559 10000000 1193 
0 10000000 965 640 0 10000000 327 10000000 10000000 
0 498 707 10000000 10000000 0 10000000 553 715 
0 998 885 559 327 10000000 0 869 813 
0 227 206 10000000 10000000 553 869 0 493 
0 10000000 10000000 10000000 10000000 10000000 10000000 10000000 0 
EOF